; benchmark generated from python API
(set-info :status unknown)
(declare-fun L_1 () Real)
(declare-fun S_1 () Real)
(declare-fun A_1 () Real)
(declare-fun L_0 () Real)
(declare-fun S_0 () Real)
(declare-fun A_0 () Real)
(declare-fun L_4 () Real)
(declare-fun S_2 () Real)
(declare-fun A_4 () Real)
(declare-fun A_3 () Real)
(declare-fun L_3 () Real)
(declare-fun L_2 () Real)
(declare-fun A_2 () Real)
(declare-fun S_4 () Real)
(declare-fun S_3 () Real)
(assert
 (let (($x34 (>= L_0 0.0)))
 (let ((?x1559 (* 2.0 L_4)))
 (let ((?x335 (* (- 1.0) S_1)))
 (let ((?x1707 (* (- 2.0) A_4)))
 (let ((?x1772 (* 2.0 A_3)))
 (let ((?x3360 (* (- 2.0) L_3)))
 (let ((?x20256 (+ ?x3360 ?x1772 ?x1707 S_2 ?x335 ?x1559)))
 (let (($x81 (= L_4 L_3)))
 (let (($x71123 (or $x81 (<= (+ (* (- 1.0) A_4) (* 2.0 S_2) ?x335 L_4) (- 5.0)) (<= ?x20256 (- 10.0)))))
 (let ((?x1775 (* (- 2.0) L_0)))
 (let ((?x1103 (* (- 1.0) S_0)))
 (let ((?x341 (* (- 1.0) S_2)))
 (let ((?x981 (* 2.0 A_1)))
 (let (($x11853 (<= (+ ?x3360 ?x1772 ?x1707 ?x981 ?x341 ?x1103 ?x1559 ?x1775) 0.0)))
 (let ((?x1754 (* 5.0 L_4)))
 (let ((?x1753 (* (- 2.0) S_0)))
 (let ((?x1752 (* (- 5.0) A_4)))
 (let ((?x1751 (* (- 5.0) L_2)))
 (let ((?x1750 (* 5.0 A_2)))
 (let ((?x1184 (* 2.0 S_4)))
 (let (($x1756 (<= (+ ?x1184 ?x1750 ?x1751 ?x1752 ?x1753 ?x1754) 0.0)))
 (let (($x51 (= L_1 L_0)))
 (let (($x1368 (not $x51)))
 (let (($x70710 (<= (+ A_2 (* (- 1.0) L_2) (* (- 1.0) A_4) S_1 ?x1103 L_4) (- 5.0))))
 (let ((?x4532 (* (- (/ 1.0 2.0)) S_0)))
 (let ((?x3146 (* (/ 1.0 2.0) S_1)))
 (let ((?x369 (* (- 1.0) A_4)))
 (let ((?x270 (* (- 1.0) L_3)))
 (let (($x67472 (<= (+ ?x270 A_3 ?x369 ?x3146 ?x4532 L_4) (- 5.0))))
 (let (($x61981 (<= 0.0 (+ (* (- 2.0) A_2) (* 2.0 L_2) (* 3.0 S_1) ?x1103))))
 (let ((?x2688 (* 4.0 L_4)))
 (let ((?x2686 (* (- 4.0) A_4)))
 (let ((?x1730 (* 2.0 S_3)))
 (let ((?x1095 (* (- 4.0) L_2)))
 (let ((?x1094 (* 4.0 A_2)))
 (let (($x20662 (<= (+ ?x1094 ?x1095 ?x1730 ?x2686 ?x1753 ?x2688) 0.0)))
 (let ((?x3590 (* 2.0 L_0)))
 (let ((?x1662 (* 2.0 S_1)))
 (let ((?x3589 (* (- 2.0) A_0)))
 (let ((?x253 (* (- 1.0) L_2)))
 (let (($x65258 (<= (+ ?x369 (* (- 3.0) A_0) (* 4.0 S_1) L_4 (* 3.0 L_0)) (- 5.0))))
 (let (($x70676 (or $x81 (<= (+ ?x270 A_3 ?x369 (* (- 1.0) A_0) S_1 L_4 L_0) (- 5.0)) $x65258 (<= (+ A_2 ?x253 ?x369 ?x3589 ?x1662 L_4 ?x3590) (- 5.0)))))
 (let ((?x4389 (* (- (/ 1.0 2.0)) L_2)))
 (let ((?x3793 (* (/ 1.0 2.0) A_2)))
 (let ((?x11548 (* (/ 1.0 2.0) S_4)))
 (let ((?x366 (* (- 1.0) A_3)))
 (let (($x66458 (<= (+ L_3 ?x366 ?x11548 ?x3793 ?x4389) (- 5.0))))
 (let (($x62325 (<= (+ (* 3.0 L_3) (* (- 3.0) A_3) ?x1184 A_1 (* (- 1.0) L_1)) (- 15.0))))
 (let (($x71 (= L_3 L_2)))
 (let (($x72106 (or $x71 $x62325 (<= (+ L_3 ?x366 (* (/ 3.0 4.0) S_4) (* (/ 1.0 4.0) S_0)) (- 5.0)) $x66458)))
 (let (($x62048 (<= (+ A_2 ?x253 ?x369 L_4) (- 15.0))))
 (let (($x61452 (<= (+ ?x270 A_3 ?x369 L_4) (- 10.0))))
 (let (($x70456 (or $x71 (<= (+ L_3 ?x366 ?x1662 ?x1103) (- 5.0)) (<= (+ L_3 ?x366 A_2 ?x253 ?x3146 ?x4532) (- 5.0)))))
 (let (($x70428 (or $x81 $x61452 $x62048 (<= (+ ?x369 S_0 L_4) (- 25.0)) (<= (+ ?x369 A_1 (* (- 1.0) L_1) L_4) (- 20.0)))))
 (let (($x70350 (or $x81 (<= (+ ?x369 (* (- 1.0) A_0) (* 2.0 S_2) L_4 L_0) (- 5.0)) (<= (+ ?x3360 ?x1772 ?x1707 (* (- 1.0) A_0) S_2 ?x1559 L_0) (- 10.0)))))
 (let (($x70253 (or $x81 (<= 0.0 (+ (* (- 1.0) A_2) L_2 (* (/ 3.0 2.0) S_1) ?x4532)) (<= (+ ?x369 (* (/ 5.0 2.0) S_1) (* (- (/ 3.0 2.0)) S_0) L_4) (- 5.0)) $x67472)))
 (let ((?x1725 (* 3.0 L_4)))
 (let ((?x1724 (* (- 3.0) A_4)))
 (let ((?x2712 (* 3.0 A_3)))
 (let ((?x2785 (* (- 3.0) L_3)))
 (let ((?x20203 (+ ?x2785 ?x2712 ?x1724 S_2 ?x1103 ?x1725)))
 (let (($x70232 (or $x81 (<= (+ ?x369 (* (/ 5.0 3.0) S_2) (* (- (/ 2.0 3.0)) S_0) L_4) (- 5.0)) (<= ?x20203 (- 15.0)))))
 (let (($x70224 (or $x81 (<= (+ (* 4.0 S_3) ?x1724 (* (- 1.0) A_0) ?x1725 L_0) (- 15.0)))))
 (let (($x64165 (<= (+ ?x369 (* (- 2.0) A_1) (* 2.0 L_1) (* 3.0 S_2) L_4) (- 5.0))))
 (let (($x70041 (or $x81 $x64165 (<= (+ ?x270 A_3 ?x369 (* (- 1.0) A_1) S_2 L_1 L_4) (- 5.0)))))
 (let (($x26633 (<= (+ A_2 ?x253 ?x369 A_1 (* (- 1.0) L_1) ?x1103 L_4) 0.0)))
 (let ((?x972 (* (- 2.0) L_1)))
 (let ((?x2687 (* (- 3.0) S_0)))
 (let ((?x3354 (* 3.0 S_1)))
 (let (($x17827 (<= (+ ?x1707 ?x981 ?x3354 ?x2687 ?x972 ?x1559) 0.0)))
 (let ((?x236 (* (- 1.0) L_1)))
 (let ((?x1129 (* (- 1.0) A_0)))
 (let (($x1471 (<= (+ ?x270 A_3 ?x369 A_1 ?x1129 ?x236 L_4 L_0) 0.0)))
 (let (($x16649 (<= (+ ?x3360 ?x1772 ?x1707 ?x981 ?x341 ?x1103 ?x972 ?x1559) 0.0)))
 (let ((?x1077 (* (- 3.0) L_1)))
 (let ((?x2478 (* 3.0 S_2)))
 (let ((?x1076 (* 3.0 A_1)))
 (let (($x12880 (<= (+ ?x1724 ?x1076 ?x2478 ?x2687 ?x1077 ?x1725) 0.0)))
 (let ((?x1091 (* (- 4.0) L_1)))
 (let ((?x1090 (* 4.0 A_1)))
 (let ((?x2658 (* 3.0 S_3)))
 (let (($x2690 (<= (+ ?x2658 ?x2686 ?x1090 ?x2687 ?x1091 ?x2688) 0.0)))
 (let (($x63476 (<= (+ ?x3360 ?x1772 ?x1707 A_1 ?x1103 ?x236 ?x1559) (- 5.0))))
 (let (($x46111 (<= (+ S_4 A_2 ?x253 ?x1707 ?x981 ?x3589 ?x972 ?x1559 ?x3590) 0.0)))
 (let ((?x8796 (* (/ 4.0 3.0) L_4)))
 (let ((?x11006 (* (- (/ 4.0 3.0)) L_1)))
 (let ((?x8795 (* (/ 4.0 3.0) A_1)))
 (let ((?x8776 (* (- (/ 4.0 3.0)) A_4)))
 (let ((?x902 (* (- 2.0) L_2)))
 (let ((?x999 (* 2.0 A_2)))
 (let (($x36698 (<= (+ ?x999 ?x902 ?x8776 ?x8795 ?x3589 ?x11006 ?x8796 ?x3590) 0.0)))
 (let (($x66222 (<= (+ (* (/ 3.0 2.0) S_3) ?x369 (* (- (/ 1.0 2.0)) A_1) (* (/ 1.0 2.0) L_1) L_4) (- 5.0))))
 (let ((?x2422 (+ ?x369 A_1 ?x236 L_4)))
 (let (($x61619 (<= ?x2422 (- 15.0))))
 (let (($x1425 (<= (+ ?x270 A_3 ?x369 A_1 ?x335 ?x236 L_4) 0.0)))
 (let (($x143204 (or $x81 $x1425 (<= (+ ?x1707 ?x981 ?x2478 (* (- 3.0) S_1) ?x972 ?x1559) 0.0))))
 (let (($x143634 (or $x81 $x1368 (<= (+ S_3 ?x8776 ?x8795 ?x1103 ?x8796 (* (- (/ 4.0 3.0)) L_0)) 0.0) $x26633 $x63476)))
 (let (($x145183 (or $x81 (<= (+ ?x3360 ?x1772 S_3 ?x1707 (* (- 1.0) A_1) L_1 ?x1559) 0.0))))
 (let (($x27493 (<= (+ (* (- 4.0) L_3) (* 4.0 A_3) S_4 ?x2686 ?x335 ?x2688) 0.0)))
 (let (($x69554 (or $x71 (<= (+ (* 2.0 L_3) (* (- 2.0) A_3) ?x2478 ?x335) (- 10.0)))))
 (let (($x69553 (or $x71 (<= (+ L_3 ?x366 (* (/ 4.0 3.0) S_2) (* (- (/ 1.0 3.0)) S_0)) (- 5.0)))))
 (let (($x27488 (<= (+ (* (- 5.0) L_3) (* 5.0 A_3) S_4 ?x1752 ?x1103 ?x1754) 0.0)))
 (let ((?x1104 (* (- 5.0) L_1)))
 (let ((?x1102 (* 5.0 A_1)))
 (let ((?x17907 (* 3.0 S_4)))
 (let (($x37966 (<= (+ ?x17907 ?x1752 ?x1102 ?x2687 ?x1104 ?x1754) 0.0)))
 (let (($x140664 (or $x81 $x61619 (<= (+ ?x270 A_3 ?x369 A_1 ?x341 ?x236 L_4) (- 5.0)))))
 (let (($x21356 (<= (+ ?x999 ?x902 ?x1707 ?x1662 ?x1753 ?x1559) 0.0)))
 (let (($x1460 (<= (+ ?x270 A_3 (* (- 1.0) A_2) L_2 ?x369 ?x981 ?x1103 ?x972 L_4) 0.0)))
 (let (($x417 (<= 0.0 (+ ?x253 L_1))))
 (let ((?x3574 (* 2.0 S_2)))
 (let ((?x1081 (* (- 3.0) L_2)))
 (let ((?x1080 (* 3.0 A_2)))
 (let (($x18839 (<= (+ ?x1080 ?x1081 ?x1724 ?x3574 ?x1753 ?x1725) 0.0)))
 (let (($x37991 (<= (+ (* (- 1.0) A_2) L_2 ?x1730 ?x369 A_1 ?x341 ?x236 L_4) 0.0)))
 (let ((?x9520 (* (/ 1.0 2.0) L_4)))
 (let ((?x4398 (* (/ 1.0 2.0) L_1)))
 (let ((?x4931 (* (/ 1.0 2.0) S_2)))
 (let ((?x4430 (* (- (/ 1.0 2.0)) A_1)))
 (let ((?x9519 (* (- (/ 1.0 2.0)) A_4)))
 (let ((?x3551 (* (/ 1.0 2.0) A_3)))
 (let ((?x3751 (* (- (/ 1.0 2.0)) L_3)))
 (let ((?x2662 (* (/ 1.0 3.0) L_4)))
 (let ((?x2480 (* (- (/ 1.0 3.0)) A_4)))
 (let (($x69465 (or $x51 $x81 (<= (+ ?x2480 (* (- (/ 2.0 3.0)) A_1) S_2 (* (/ 2.0 3.0) L_1) ?x2662) (- 5.0)) (<= (+ ?x3751 ?x3551 ?x9519 ?x4430 ?x4931 ?x4398 ?x9520) (- 5.0)))))
 (let ((?x361 (* (- 1.0) A_1)))
 (let ((?x4897 (* (/ 1.0 2.0) L_2)))
 (let ((?x3507 (* (- (/ 1.0 2.0)) A_2)))
 (let (($x63930 (<= (+ ?x3360 ?x1772 A_2 ?x253 ?x1707 ?x1129 ?x1559 L_0) (- 5.0))))
 (let ((?x363 (* (- 1.0) A_2)))
 (let ((?x2568 (+ ?x363 L_2 ?x1129 ?x1662 L_0)))
 (let (($x62053 (<= 0.0 ?x2568)))
 (let (($x62054 (not $x62053)))
 (let (($x142409 (or $x71 $x62054 (<= (+ L_3 ?x366 A_2 ?x253 ?x1129 S_1 L_0) (- 5.0)))))
 (let (($x63975 (<= 0.0 (+ L_3 ?x366 ?x363 L_2 A_4 A_1 (* (- 1.0) L_4) ?x236))))
 (let ((?x8988 (* (/ 3.0 2.0) L_4)))
 (let ((?x10143 (* (- (/ 3.0 2.0)) A_4)))
 (let ((?x3914 (* (/ 3.0 2.0) A_3)))
 (let ((?x3915 (* (- (/ 3.0 2.0)) L_3)))
 (let (($x66409 (<= (+ ?x3915 ?x3914 ?x3793 ?x4389 ?x10143 ?x4532 ?x8988) (- 5.0))))
 (let (($x26214 (<= (+ A_2 ?x253 ?x369 (* (- 2.0) A_1) (* 2.0 L_1) ?x3574 L_4) 0.0)))
 (let (($x20575 (<= (+ (* (/ 3.0 2.0) A_2) (* (- (/ 3.0 2.0)) L_2) S_3 ?x10143 ?x335 ?x8988) 0.0)))
 (let (($x17684 (<= (+ (* (/ 3.0 2.0) A_2) (* (- (/ 3.0 2.0)) L_2) S_3 ?x10143 ?x1129 ?x8988 L_0) 0.0)))
 (let (($x59508 (not (<= 0.0 (+ ?x270 L_2)))))
 (let (($x72682 (or $x81 $x1368 $x1471 (<= (+ S_4 ?x8776 ?x8795 ?x1129 ?x8796 (* (- (/ 1.0 3.0)) L_0)) 0.0) $x46111)))
 (let (($x46104 (<= (+ S_4 A_2 ?x253 ?x1707 ?x981 (* (- 2.0) S_1) ?x972 ?x1559) 0.0)))
 (let (($x141382 (or $x81 $x1425 (<= (+ ?x17907 ?x2686 ?x1090 (* (- 3.0) S_1) ?x1091 ?x2688) 0.0) $x46104)))
 (let (($x67125 (<= (+ ?x3360 ?x1772 A_2 ?x253 ?x1707 ?x335 ?x1559) (- 5.0))))
 (let (($x20972 (<= (+ A_2 ?x253 ?x369 S_2 ?x335 L_4) 0.0)))
 (let (($x18721 (<= (+ (* (- 4.0) L_3) (* 4.0 A_3) S_3 ?x2686 ?x1103 ?x2688) 0.0)))
 (let (($x144502 (or $x81 $x1471 (<= (+ A_2 ?x253 ?x369 A_1 ?x3589 S_1 ?x236 L_4 ?x3590) 0.0) $x62054)))
 (let ((?x287 (* (- 1.0) L_4)))
 (let ((?x959 (* 2.0 L_1)))
 (let ((?x3566 (* 2.0 S_0)))
 (let ((?x1013 (* (- 2.0) A_1)))
 (let (($x1447 (<= (+ ?x270 A_3 A_2 ?x253 ?x369 ?x341 L_4) 0.0)))
 (let ((?x2671 (* (/ 2.0 3.0) L_4)))
 (let ((?x2670 (* (- (/ 2.0 3.0)) L_1)))
 (let ((?x2385 (* (/ 2.0 3.0) A_1)))
 (let ((?x2378 (* (- (/ 2.0 3.0)) A_4)))
 (let ((?x211 (* (- 1.0) L_0)))
 (let ((?x18994 (* (- (/ 3.0 2.0)) S_0)))
 (let ((?x3171 (* (/ 3.0 2.0) S_1)))
 (let (($x142994 (or $x81 $x1368 $x16649 (<= (+ ?x369 A_1 ?x3171 ?x18994 L_4 ?x211) 0.0) $x26633)))
 (let ((?x9442 (* (- (/ 1.0 2.0)) L_4)))
 (let ((?x9498 (* (/ 1.0 2.0) A_4)))
 (let ((?x2205 (* (/ 3.0 2.0) L_2)))
 (let ((?x4251 (* (- (/ 3.0 2.0)) A_2)))
 (let (($x61 (= L_2 L_1)))
 (let (($x62955 (<= (+ L_3 ?x366 (* (- (/ 1.0 2.0)) A_0) (* (/ 3.0 2.0) S_2) (* (/ 1.0 2.0) L_0)) (- 5.0))))
 (let (($x68468 (or $x51 $x81 (<= (+ S_3 ?x2378 (* (- (/ 1.0 3.0)) A_1) (* (/ 1.0 3.0) L_1) ?x2671) (- 5.0)))))
 (let (($x22017 (<= (+ (* 4.0 L_3) (* (- 4.0) A_3) S_4 ?x1094 ?x1095 ?x335) 0.0)))
 (let (($x64820 (<= 0.0 (+ ?x3751 ?x3551 ?x3793 ?x4389 ?x9519 ?x4430 ?x4398 ?x9520))))
 (let ((?x1760 (* (- 2.0) A_3)))
 (let ((?x1759 (* 2.0 L_3)))
 (let (($x141179 (or $x61 (<= (+ ?x1759 ?x1760 S_4 ?x363 L_2 A_4 S_0 ?x287) 0.0) $x64820)))
 (let (($x142163 (or $x61 (<= (+ S_4 (* (- 3.0) A_2) (* 3.0 L_2) ?x981 ?x972) (- 15.0)) (<= (+ ?x11548 ?x363 L_2 (* (/ 1.0 2.0) S_0)) (- 5.0)))))
 (let ((?x1747 (* (- 2.0) L_4)))
 (let ((?x1746 (* 2.0 A_4)))
 (let ((?x2698 (* (- 3.0) A_3)))
 (let ((?x2697 (* 3.0 L_3)))
 (let ((?x19288 (+ ?x1759 ?x1760 A_2 ?x253 A_4 ?x287)))
 (let (($x64474 (<= ?x19288 (- 5.0))))
 (let (($x62779 (or $x61 (<= (+ L_3 ?x366 S_4 ?x363 L_2 A_1 ?x236) (- 5.0)) (<= (+ ?x1759 ?x1760 ?x1184 ?x363 L_2 S_0) (- 5.0)))))
 (let ((?x1855 (* (- 2.0) S_1)))
 (let ((?x3362 (* (- 4.0) A_3)))
 (let ((?x3379 (* 4.0 L_3)))
 (let (($x10098 (<= (+ L_3 ?x366 A_2 ?x253 A_1 ?x335 ?x236) 0.0)))
 (let ((?x4650 (* (- (/ 5.0 2.0)) L_1)))
 (let ((?x4649 (* (/ 5.0 2.0) A_1)))
 (let ((?x4648 (* (- (/ 5.0 2.0)) A_3)))
 (let ((?x4646 (* (/ 5.0 2.0) L_3)))
 (let (($x13536 (<= (+ ?x4646 ?x4648 S_4 ?x4649 ?x1103 ?x4650) 0.0)))
 (let (($x27489 (<= (+ (* (- 4.0) L_3) (* 4.0 A_3) S_4 ?x2686 ?x1129 ?x2688 L_0) 0.0)))
 (let ((?x2677 (* (- (/ 2.0 3.0)) L_4)))
 (let ((?x2655 (* (- (/ 1.0 3.0)) L_1)))
 (let ((?x2664 (* (/ 1.0 3.0) A_1)))
 (let ((?x2674 (* (/ 2.0 3.0) A_4)))
 (let (($x10589 (<= (+ L_3 ?x366 ?x2674 ?x2664 ?x2655 ?x2677) 0.0)))
 (let (($x10085 (<= (+ ?x1759 ?x1760 ?x999 ?x902 ?x981 ?x341 ?x1103 ?x972) 0.0)))
 (let (($x30365 (<= (+ L_3 ?x366 ?x4251 ?x2205 (* (/ 3.0 2.0) A_4) S_0 (* (- (/ 3.0 2.0)) L_4)) 0.0)))
 (let (($x37970 (<= (+ ?x17907 ?x2686 ?x1090 (* (- 3.0) A_0) ?x1091 ?x2688 (* 3.0 L_0)) 0.0)))
 (let ((?x743 (+ L_3 ?x287)))
 (let (($x60942 (<= 0.0 ?x743)))
 (let (($x58819 (not $x60942)))
 (let (($x71621 (or $x61 $x58819 (<= (+ ?x270 (* (- 3.0) A_2) (* 3.0 L_2) A_4 ?x1662) (- 10.0)))))
 (let ((?x973 (* 2.0 L_2)))
 (let ((?x879 (* (- 2.0) A_2)))
 (let (($x72630 (or $x61 (<= (+ ?x1759 ?x1760 ?x879 ?x973 ?x1746 S_2 S_0 ?x1747) 0.0) $x64820)))
 (let (($x19631 (<= (+ A_2 ?x253 ?x369 ?x1129 S_2 L_4 L_0) 0.0)))
 (let (($x21871 (<= (+ (* 5.0 L_3) (* (- 5.0) A_3) S_4 ?x1750 ?x1751 ?x1103) 0.0)))
 (let ((?x8789 (* (- (/ 1.0 3.0)) L_4)))
 (let ((?x11556 (* (/ 4.0 3.0) L_1)))
 (let ((?x8801 (* (- (/ 4.0 3.0)) A_1)))
 (let ((?x8782 (* (/ 1.0 3.0) A_4)))
 (let (($x72098 (or $x61 (<= (+ ?x366 ?x363 L_2 A_4 ?x4931 (* (/ 1.0 2.0) S_0)) 0.0) $x58819 $x64820)))
 (let (($x8652 (<= (+ L_3 ?x366 A_2 ?x253 A_1 ?x1129 ?x236 L_0) 0.0)))
 (let (($x17831 (<= (+ ?x369 A_1 (* (- 3.0) A_0) ?x3354 ?x236 L_4 (* 3.0 L_0)) 0.0)))
 (let (($x57902 (or $x51 (<= (+ ?x363 L_2 A_4 ?x361 ?x341 ?x3566 L_1 ?x287) 0.0))))
 (let ((?x4433 (* (- (/ 3.0 2.0)) L_1)))
 (let ((?x4432 (* (/ 3.0 2.0) A_1)))
 (let ((?x3759 (* (- (/ 3.0 2.0)) A_3)))
 (let ((?x3758 (* (/ 3.0 2.0) L_3)))
 (let (($x4435 (<= (+ ?x3758 ?x3759 ?x4432 S_2 ?x1103 ?x4433) 0.0)))
 (let ((?x1075 (* 3.0 L_2)))
 (let ((?x1074 (* (- 3.0) A_2)))
 (let ((?x1463 (+ ?x1074 ?x1075 A_4 ?x981 ?x972 ?x287)))
 (let (($x71690 (or $x61 (<= (+ ?x879 ?x973 A_4 S_0 ?x287) (- 5.0)) (<= ?x1463 (- 10.0)))))
 (let (($x64173 (or $x71 (<= (+ ?x3758 ?x3759 S_4 (* (/ 1.0 2.0) A_1) (* (- (/ 1.0 2.0)) L_1)) (- 5.0)) $x66458)))
 (let (($x145685 (or $x51 $x81 (<= (+ ?x3360 ?x1772 ?x363 L_2 ?x369 ?x361 S_1 L_1 L_4) 0.0))))
 (let (($x60961 (<= 0.0 (+ ?x361 S_2 L_1))))
 (let (($x60295 (<= 0.0 (+ ?x1074 ?x1075 A_4 ?x981 ?x287 ?x972))))
 (let (($x491 (<= 0.0 (+ ?x236 L_0))))
 (let (($x142425 (or $x71 $x10589 (<= (+ ?x1759 ?x1760 A_2 ?x253 A_4 A_1 ?x341 ?x236 ?x287) 0.0))))
 (let (($x141018 (or $x71 (<= (+ ?x3758 ?x3759 S_4 ?x4432 ?x341 ?x4433) 0.0) (<= (+ L_3 ?x366 ?x11548 ?x3793 ?x4389 A_1 ?x341 ?x236) 0.0))))
 (let (($x64041 (<= (+ S_4 (* (- 4.0) A_1) (* 3.0 S_0) (* 4.0 L_1)) (- 20.0))))
 (let (($x19185 (<= (+ ?x1707 ?x981 (* (- 3.0) A_0) ?x2478 ?x972 ?x1559 (* 3.0 L_0)) 0.0)))
 (let (($x62522 (<= (+ ?x1759 ?x1760 ?x999 ?x902 A_1 ?x1103 ?x236) (- 5.0))))
 (let (($x3128 (<= (+ L_3 ?x366 A_1 S_1 ?x1103 ?x236) 0.0)))
 (let (($x72899 (or $x51 (<= (+ (* (/ 1.0 3.0) S_3) ?x361 (* (/ 2.0 3.0) S_0) L_1) (- 5.0)))))
 (let (($x1898 (<= (+ (* (- 4.0) A_2) (* 4.0 L_2) S_3 ?x1090 ?x1103 ?x1091) 0.0)))
 (let (($x140433 (or $x71 (<= (+ ?x3379 ?x3362 (* 3.0 A_4) S_0 (* (- 3.0) L_4)) (- 5.0)) (<= (+ ?x2697 ?x2698 ?x1746 A_1 ?x236 ?x1747) (- 5.0)) $x64474)))
 (let (($x146252 (or $x61 (<= (+ ?x270 A_3 ?x879 ?x973 A_1 ?x236) (- 5.0)) (<= (+ ?x3360 ?x1772 ?x1074 ?x1075 S_0) (- 5.0)))))
 (let (($x72253 (or $x51 (<= (+ ?x3751 ?x3551 (* (- (/ 3.0 2.0)) A_1) S_0 (* (/ 3.0 2.0) L_1)) (- 5.0)))))
 (let (($x1093 (<= (+ S_4 (* (- 4.0) A_2) (* 4.0 L_2) ?x1090 ?x335 ?x1091) 0.0)))
 (let (($x1106 (<= (+ S_4 (* (- 5.0) A_2) (* 5.0 L_2) ?x1102 ?x1103 ?x1104) 0.0)))
 (let (($x143896 (or $x417 (<= (+ L_3 ?x366 ?x879 ?x973 A_4 A_1 S_2 ?x236 ?x287) 0.0))))
 (let (($x487 (not $x491)))
 (let (($x78851 (or $x71 $x487 (<= (+ ?x1759 ?x1760 A_2 ?x253 A_4 L_1 ?x287 ?x211) 0.0))))
 (let (($x62748 (or $x61 (<= (+ ?x363 L_2 A_4 ?x287 (* (- 2.0) S_2) ?x3566) 0.0) $x60961)))
 (let (($x1131 (<= (+ S_4 (* (- 4.0) A_2) (* 4.0 L_2) ?x1090 ?x1129 ?x1091 L_0) 0.0)))
 (let (($x74067 (or $x81 $x1447 (<= (+ ?x1184 ?x1080 ?x1081 ?x1724 (* (- 2.0) S_2) ?x1725) 0.0))))
 (let (($x63477 (or $x71 (<= (+ L_3 ?x366 (* (/ 2.0 3.0) S_4) (* (/ 1.0 3.0) S_1)) (- 5.0)) (<= (+ ?x1759 ?x1760 S_4 A_2 ?x253) (- 10.0)))))
 (let (($x18015 (<= (+ ?x8782 (* (- (/ 1.0 3.0)) A_1) ?x341 S_0 (* (/ 1.0 3.0) L_1) ?x8789) 0.0)))
 (let (($x3342 (not $x61)))
 (let (($x144519 (or $x71 $x3342 (<= (+ L_3 ?x366 A_2 ?x1129 S_1 ?x236 L_0) 0.0))))
 (let (($x61424 (or $x61 (<= (+ ?x879 ?x973 S_3 A_1 ?x236) (- 10.0)) (<= (+ ?x363 L_2 (* (/ 2.0 3.0) S_3) (* (/ 1.0 3.0) S_0)) (- 5.0)))))
 (let (($x61075 (or $x51 $x71 (<= (+ (* (/ 1.0 2.0) L_3) (* (- (/ 1.0 2.0)) A_3) ?x4430 S_2 ?x4398) (- 5.0)))))
 (let (($x2711 (<= (+ ?x2658 ?x1724 ?x1076 (* (- 3.0) A_0) ?x1077 ?x1725 (* 3.0 L_0)) 0.0)))
 (let (($x1146 (not (<= ?x1463 0.0))))
 (let (($x1116 (= (+ ?x1080 ?x1081 ?x369 ?x1013 ?x959 L_4) 0.0)))
 (let (($x140535 (or $x51 $x81 (<= (+ ?x270 A_3 A_2 ?x253 ?x369 ?x361 L_1 L_4) (- 5.0)) $x1116 $x1146)))
 (let (($x108 (>= S_1 S_0)))
 (let (($x111 (>= S_2 S_1)))
 (let (($x119 (>= A_1 A_0)))
 (let (($x120 (>= A_2 A_1)))
 (and (<= (+ A_3 ?x270) S_4) (<= (+ A_2 ?x253) S_3) (not (<= (+ A_3 ?x270) S_3)) $x120 $x119 $x111 $x108 (or $x51 $x487) (or $x51 $x61 $x71 (= (+ L_3 ?x366 ?x999 ?x902 ?x361 L_1) 0.0)) (or (not $x71) $x61 (<= 0.0 (+ ?x366 ?x999 ?x253 ?x361 L_1))) (or (not $x81) $x61 (<= 0.0 (+ L_3 ?x1080 ?x1081 ?x369 ?x1013 ?x959))) (or $x61 (not $x417)) (or $x51 $x61 $x81 $x1116 $x1460) $x140535 (or $x51 $x81 $x1116 $x1146 $x1447) (or $x51 $x81 $x1116 $x1146 $x1471) (or $x51 $x81 $x1116 $x1146 $x1425) (or $x81 $x58819) (or $x61 (<= (+ L_3 ?x366 ?x363 L_2 A_4 S_1 ?x287) 0.0)) (or $x81 (<= (+ S_4 ?x369 L_4) (- 5.0))) (or $x51 (<= (+ ?x361 S_1 L_1) (- 5.0))) (or $x61 (<= (+ ?x879 ?x973 ?x981 S_1 ?x1103 ?x972) 0.0)) (or $x61 (<= (+ ?x363 L_2 A_1 ?x1129 S_1 ?x236 L_0) 0.0)) (or $x51 (<= (+ A_2 ?x253 ?x361 ?x341 S_0 L_1) 0.0)) (or $x51 (<= (+ A_2 ?x253 ?x1013 S_0 ?x959) (- 5.0))) (or $x61 (<= (+ ?x363 L_2 S_2) (- 5.0))) (or $x61 (<= (+ ?x1074 ?x1075 ?x1076 S_2 ?x1103 ?x1077) 0.0)) (or $x61 (<= (+ ?x879 ?x973 ?x981 ?x1129 S_2 ?x972 L_0) 0.0)) (or $x71 $x59508) (or $x71 (<= (+ L_3 ?x366 S_3) (- 5.0))) (or $x61 $x1368 (<= (+ ?x270 A_3 ?x879 ?x973 A_1 ?x211) 0.0)) (or $x81 $x2711) (or $x71 (<= (+ ?x1759 ?x1760 ?x981 ?x3589 ?x3574 ?x972 ?x3590) 0.0)) $x61075 (<= (+ ?x363 L_2 S_2) 0.0) (or $x60961 (<= (+ ?x341 S_0) (- 5.0))) (or $x71 (<= (+ ?x1759 ?x1760 ?x999 ?x902 S_3 ?x341) 0.0)) (or $x71 (<= (+ ?x3379 ?x3362 ?x1094 ?x1095 S_3 ?x1103) 0.0)) (or (<= (+ (* (/ 1.0 3.0) S_3) ?x341 (* (/ 2.0 3.0) S_0)) 0.0) $x60961) (or $x61 (<= (+ ?x879 ?x973 S_3 S_1) (- 10.0))) (or $x61 (<= ?x2568 (- 5.0))) $x61424 (or $x61 (<= (+ ?x879 ?x973 S_3 A_1 ?x236) (- 5.0))) (<= (+ S_4 ?x369 L_4) 0.0) $x144519 (or $x51 (<= (+ ?x361 L_1 S_0) (- 10.0))) (or (<= (+ S_4 (* (- 4.0) S_2) (* 3.0 S_0)) 0.0) $x60961) (or $x51 (<= (+ ?x361 ?x4931 (* (/ 1.0 2.0) S_0) L_1) (- 5.0))) (or $x51 $x71 $x3342 (<= (+ L_3 ?x366 ?x999 ?x361 ?x236) 0.0)) (or $x60961 (<= (+ L_3 ?x366 S_4 ?x341 S_0) 0.0)) (or (<= (+ ?x363 L_2 S_3 ?x341 S_0) 0.0) $x60961) (or $x71 (<= (+ ?x2697 ?x2698 ?x1080 ?x1081 S_3 ?x335) 0.0)) (or $x71 (<= (+ ?x1759 ?x1760 ?x999 ?x902 S_2 ?x335) 0.0)) (or $x81 $x1368 (<= (+ S_4 ?x369 A_1 ?x341 L_4 ?x211) 0.0)) (or $x71 (<= (+ ?x1759 ?x1760 ?x981 ?x3574 ?x1855 ?x972) 0.0)) (or $x71 (<= (+ L_3 ?x366 A_2 ?x253 ?x361 L_1 S_2) 0.0)) (or $x71 (<= (+ L_3 ?x366 ?x361 L_1 ?x3574) (- 5.0))) (or $x61 (<= (+ ?x270 A_3 ?x879 ?x973 S_1) (- 5.0))) (or $x71 (<= (+ L_3 ?x1760 A_2 ?x253 A_4) 0.0) $x58819) (or $x51 $x18015) (or $x61 (<= (+ S_4 ?x1074 ?x1075 ?x981 ?x972) (- 5.0))) $x63477 $x74067 (or $x61 (<= (+ ?x879 ?x973 ?x2674 ?x8795 ?x11006 ?x2677) 0.0)) (or $x61 (<= (+ L_3 ?x366 S_4 ?x363 L_2 A_1 ?x236) 0.0)) (or $x71 (<= (+ ?x2697 ?x2698 S_4 ?x1080 ?x1081 ?x341) 0.0)) (or $x61 (<= (+ ?x1074 ?x1075 S_3 ?x1076 ?x1129 ?x1077 L_0) 0.0)) (or $x61 $x1131) (or $x61 (<= (+ S_4 ?x1074 ?x1075 ?x1076 ?x341 ?x1077) 0.0)) (or $x61 (<= (+ ?x270 A_3 ?x363 L_2 ?x341 S_0) 0.0) $x60961) $x62748 (or $x81 $x1471 $x19631) (or $x61 (<= (+ L_3 ?x366 S_4 ?x363 L_2 S_1) (- 5.0))) (or $x81 $x1471 $x1756) (or $x81 $x1447 (<= (+ S_4 ?x999 ?x902 ?x1707 ?x1129 ?x1559 L_0) 0.0)) (or $x81 $x1447 $x1756) $x78851 (or $x61 (<= (+ ?x879 ?x973 ?x981 S_2 ?x335 ?x972) 0.0)) (or $x81 (<= (+ ?x2658 ?x1724 ?x1076 (* (- 3.0) S_1) ?x1077 ?x1725) 0.0)) $x143896 (or $x81 (<= (+ ?x270 A_3 ?x369 ?x361 L_1 S_2 L_4) 0.0)) (or $x71 (<= (+ ?x2697 ?x2698 S_4 ?x1080 ?x1081 ?x361 L_1) 0.0)) (or $x71 (<= (+ ?x1759 ?x1760 ?x999 ?x902 S_3 ?x361 L_1) 0.0)) (or $x71 (<= (+ ?x2697 ?x2698 ?x1080 ?x1081 S_3 ?x1129 L_0) 0.0)) (or $x81 (<= (+ S_4 ?x369 A_1 ?x341 ?x236 L_4) 0.0)) (or $x51 (<= (+ ?x3751 ?x3551 ?x4430 ?x341 S_0 ?x4398) 0.0)) (or $x61 (<= (+ ?x363 L_2 ?x3171 ?x4532) (- 5.0))) (or $x81 (<= (+ ?x3360 ?x1772 S_4 ?x363 L_2 ?x1707 ?x1559) 0.0)) (or $x81 (<= (+ ?x2785 ?x2712 S_4 ?x1724 ?x361 L_1 ?x1725) 0.0)) (or $x61 $x81 (<= 0.0 ?x19288)) (or $x71 (<= (+ L_3 ?x366 A_4 ?x287 ?x341 S_0) 0.0) $x60961) (or $x81 (<= (+ ?x270 A_3 ?x363 L_2 S_3 ?x369 L_4) 0.0)) (or $x81 (<= (+ ?x3360 ?x1772 S_3 ?x1707 ?x341 ?x1559) 0.0)) (or $x81 (<= (+ ?x999 ?x902 ?x1730 ?x1707 (* (- 2.0) S_2) ?x1559) 0.0)) (or $x71 $x4435 $x62522) (or $x51 (<= (+ ?x270 A_3 ?x363 L_2 ?x361 S_0 L_1) 0.0)) (or $x71 (<= (+ L_3 ?x366 S_3 A_1 ?x341 ?x236) 0.0)) (or $x71 $x3128 $x8652) (or $x61 $x1106) (or $x61 (<= (+ ?x1074 ?x1075 S_3 ?x1076 ?x335 ?x1077) 0.0)) (or $x61 $x1093) (or $x71 (<= (+ ?x1759 ?x1760 S_3 ?x981 ?x1103 ?x972) 0.0) $x62522) (or $x61 (<= (+ ?x879 ?x973 S_3 ?x981 ?x341 ?x972) 0.0)) (or $x71 (<= (+ L_3 ?x366 A_1 ?x3589 ?x1662 ?x236 ?x3590) 0.0) $x8652) (or $x71 $x8652 (<= (+ ?x3379 ?x3362 ?x1184 ?x1090 ?x3589 ?x1091 ?x3590) 0.0)) $x72253 (or $x81 $x19631 $x63975) (or $x71 (<= (+ ?x1759 ?x1760 A_4 S_2 ?x287) (- 5.0))) (or $x81 (<= (+ ?x3360 ?x1772 ?x1707 ?x1129 S_2 ?x1559 L_0) 0.0)) $x146252 (or $x81 (<= (+ ?x270 A_3 ?x369 ?x1129 S_1 L_4 L_0) 0.0)) (or $x71 $x1368 (<= (+ ?x2697 ?x2698 ?x1746 A_1 ?x1747 ?x211) 0.0) $x64474) $x140433 (or $x81 (<= ?x20256 0.0)) (or $x81 $x1471 $x21356) (or $x81 $x491 $x60295 $x63476) (or $x81 (<= (+ S_3 ?x369 L_4) (- 10.0))) (or $x61 $x81 (<= (+ ?x3507 ?x4897 S_3 ?x9519 ?x9520) (- 5.0))) (or $x61 $x1898) (or $x51 (<= (+ L_3 ?x366 S_4 ?x361 S_0 L_1) (- 5.0))) (or $x71 (<= (+ ?x1759 ?x1760 ?x999 ?x902 S_1 ?x1103) 0.0)) (or $x81 (<= (+ A_2 ?x253 S_3 ?x369 ?x361 L_4 L_1) 0.0)) $x72899 (or $x51 $x81 (<= 0.0 (+ L_3 ?x366 ?x2674 ?x2664 ?x2677 ?x2655))) (or $x71 $x3128 $x62522) (or $x81 (<= (+ ?x3360 ?x1772 ?x1707 S_1 ?x1103 ?x1559) 0.0)) (or $x71 $x10589 $x64474) (or $x51 (<= (+ L_3 ?x366 A_4 ?x361 S_0 L_1 ?x287) 0.0)) (or $x81 $x1471 $x19185) (or $x71 $x8652 $x10589) (or $x51 $x64041) $x141018 (or $x71 $x8652 (<= (+ ?x2697 ?x2698 ?x1730 ?x1076 ?x3589 ?x1077 ?x3590) 0.0)) (or $x71 (<= (+ ?x1759 ?x1760 S_4 S_2) (- 10.0))) $x142425 (or $x71 $x10589 $x26633 $x60942) (or $x81 $x491 $x16649 $x60295) (or $x71 $x10085 (<= (+ ?x1759 ?x1760 S_3 ?x981 ?x1103 ?x972) 0.0)) (or $x71 $x8652 (<= (+ ?x1759 ?x1760 S_3 ?x981 ?x1103 ?x972) 0.0)) (or $x71 $x10098 (<= (+ ?x1759 ?x1760 S_3 ?x981 ?x1103 ?x972) 0.0)) (or $x71 (<= (+ ?x1759 ?x1760 S_4 A_2 ?x253) (- 5.0))) (or $x81 $x61452 (<= (+ ?x369 S_2 L_4) (- 15.0))) (or $x60961 (<= (+ S_4 ?x363 L_2 (* (- 2.0) S_2) ?x3566) 0.0)) (or $x71 (<= (+ ?x1759 ?x1760 ?x999 ?x902 ?x1129 S_2 L_0) 0.0)) (or $x71 (<= (+ L_3 ?x366 A_2 ?x253 ?x1129 S_1 L_0) 0.0)) (or $x71 (<= (+ ?x2697 ?x2698 ?x1080 ?x1081 S_2 ?x1103) 0.0)) $x145685 $x64173 (or $x81 $x1447 $x20662) (or $x61 (<= (+ S_4 ?x1074 ?x1075 ?x1662) (- 15.0))) (or $x81 $x20662 $x63476) (or $x81 $x20662 $x63930) (or $x81 (<= (+ S_4 ?x999 ?x902 ?x1707 ?x1129 ?x1559 L_0) 0.0) $x63930) $x71690 (or $x81 $x18839 $x63930) (or $x71 $x4435 $x8652) (or $x71 $x4435 $x10098) (or $x71 $x3128 $x10085) (or $x71 $x10085 $x13536) $x57902 (or $x81 $x1425 $x12880) (or $x81 $x1471 $x17831 $x36698) (or $x81 $x1425 $x26633 $x37966) (or $x71 $x8652 $x13536) $x72098 (or $x51 (<= (+ ?x8782 ?x8801 S_0 ?x11556 ?x8789) (- 5.0))) (or $x71 $x10098 $x10589) (or $x71 $x21871) (or $x81 $x19631 $x63930) $x72630 $x71621 (or $x71 (<= (+ ?x3379 ?x3362 S_4 ?x1094 ?x1095 ?x1129 L_0) 0.0)) (or $x71 $x10098 (<= (+ ?x2697 ?x2698 ?x1730 ?x1076 ?x1855 ?x1077) 0.0)) (or $x81 $x1471 $x36698 $x37970) (or $x61 $x30365 $x64820) (or $x71 $x10589 $x62522) (or $x71 $x10085 $x10589) (or $x81 $x27489) (or $x71 $x13536 $x62522) (or $x71 $x10098 $x13536) (or $x71 $x10098 (<= (+ ?x3379 ?x3362 ?x1184 ?x1090 ?x1855 ?x1091) 0.0)) (or $x81 (<= (+ (* 4.0 S_3) ?x1724 ?x335 ?x1725) (- 15.0))) (or $x81 (<= (+ ?x363 L_2 ?x1730 ?x369 L_4) (- 5.0))) $x62779 (or $x81 (<= (+ S_4 ?x999 ?x902 ?x1707 ?x335 ?x1559) 0.0) $x67125) (or $x71 $x64474 (<= (+ ?x2697 ?x2698 ?x1746 S_1 ?x1747) (- 5.0))) (or $x81 $x21356 $x63476) $x142163 $x141179 (or $x71 $x22017) (or $x81 (<= (+ ?x1184 ?x1080 ?x1081 ?x1724 ?x1013 ?x959 ?x1725) 0.0) $x63975) $x68468 (or $x71 $x62955) (or $x81 $x1447 $x20575) (or $x61 (<= (+ ?x4251 ?x2205 ?x9498 S_1 ?x9442) (- 5.0))) (or $x81 $x1447 $x17684) (or $x81 $x17684 $x63975) (or $x81 $x17684 $x63930) (or $x51 (<= (+ ?x363 L_2 S_3 ?x361 S_0 L_1) (- 5.0))) (or $x81 (<= (+ ?x3793 ?x4389 ?x9519 ?x1129 S_1 ?x9520 L_0) 0.0) $x63930) (or $x81 $x12880 $x63476) (or $x81 $x1471 (<= (+ ?x3793 ?x4389 ?x9519 ?x1129 S_1 ?x9520 L_0) 0.0)) (or $x81 $x1447 (<= (+ ?x3793 ?x4389 ?x9519 ?x1129 S_1 ?x9520 L_0) 0.0)) (or $x81 $x16649 $x21356) $x142994 (or $x81 $x2690 $x16649 $x26633) (or $x81 (<= (+ S_3 ?x2378 ?x2385 ?x341 ?x2670 ?x2671) 0.0)) (or $x81 $x1447 (<= (+ S_4 ?x999 ?x902 ?x1707 ?x335 ?x1559) 0.0)) (or $x81 $x1447 $x21356) (or $x81 $x1471 $x20662) (or $x81 $x1425 $x20575) (or $x81 $x1425 $x20662) (or $x81 $x20662 $x67125) (or $x81 $x18839 $x63476) (or $x81 $x18839 $x66409) (or $x81 (<= (+ ?x2785 ?x2712 S_4 ?x1724 ?x341 ?x1725) 0.0)) (or $x81 (<= ?x20203 0.0)) (or $x51 (<= (+ ?x363 L_2 A_4 ?x1013 ?x3566 ?x959 ?x287) (- 5.0))) $x144502 (or $x81 $x1471 $x12880) (or $x81 $x18721) (or $x81 $x1471 (<= (+ S_4 ?x999 ?x902 ?x1707 ?x1129 ?x1559 L_0) 0.0)) (or $x81 $x1425 (<= (+ S_4 ?x999 ?x902 ?x1707 ?x335 ?x1559) 0.0)) (or $x81 (<= (+ S_4 ?x999 ?x902 ?x1707 ?x335 ?x1559) 0.0) $x63975) (or $x81 (<= (+ S_4 ?x999 ?x902 ?x1707 ?x1129 ?x1559 L_0) 0.0) $x63975) (or $x81 (<= (+ ?x3793 ?x4389 ?x9519 ?x1129 S_1 ?x9520 L_0) 0.0) $x63975) (or $x81 $x20972 $x67125) $x141382 $x72682 (or $x81 (<= (+ ?x2712 ?x1081 S_3 ?x1724 ?x1129 ?x1725 L_0) 0.0) $x59508) (or $x81 $x20575 $x67125) (or $x81 $x1471 $x17684) (or $x81 $x21356 $x66409) (or $x81 $x20662 $x66409) (or $x81 $x417 $x1460 $x20662) (or $x81 $x20575 $x63975) (or $x81 $x20972 $x63975) (or $x81 $x20662 $x63975) (or $x81 $x26214 $x63975) (or $x81 $x18839 $x67125) (or $x81 $x18839 $x63975) (or $x81 $x21356 $x63930) (or $x81 $x21356 $x63975) (or $x81 $x1425 $x20972) (or $x81 $x1756 $x63476) (or $x81 $x1756 $x66409) (or $x81 $x1756 $x63975) (or $x71 $x62053 (<= (+ L_3 ?x366 ?x3589 ?x3354 ?x3590) (- 5.0))) $x142409 (or $x81 $x1756 $x63930) (or $x81 $x417 $x1460 $x1756) (or $x51 (<= (+ ?x11548 ?x3507 ?x4897 ?x361 S_0 L_1) (- 5.0))) $x69465 (or $x81 $x37991) (or $x81 $x1471 $x18839) (or $x81 $x1425 $x18839) (or $x81 $x417 $x1460 $x18839) (or $x81 $x417 $x1460 $x21356) (or $x81 $x1425 $x1756) (or $x81 $x16649 $x26633 $x37966) $x140664 (or $x81 $x26633 $x37966 $x63476) (or $x81 $x1471 $x26633 $x37966) (or $x81 $x1756 $x67125) (or $x81 $x27488) (or $x81 (<= (+ ?x2785 ?x2712 S_3 ?x1724 ?x1129 ?x1725 L_0) 0.0)) $x69553 $x69554 (or $x81 $x27493) $x145183 (or $x81 (<= (+ ?x2785 ?x2712 S_3 ?x1724 ?x335 ?x1725) 0.0)) $x143634 (or $x81 $x1425 $x2690 $x26633) (or $x81 $x61619 $x63476) $x143204 (or $x81 $x16649 $x61619) (or $x81 $x1425 $x61619) (or $x81 $x66222) (or $x81 $x1471 $x61619) (or $x81 $x61452 $x61619) (or $x81 $x17827 $x26633 $x63476) (or $x81 $x1471 (not $x36698) $x46111) (or $x81 $x2690 $x26633 $x63476) (or $x81 $x16649 $x17827 $x26633) (or $x81 $x1471 $x2690 $x26633) (or $x81 $x12880 $x16649) (or $x81 $x1471 $x17827 $x26633) $x70041 $x70224 $x70232 $x70253 $x70350 $x70428 $x70456 (or $x81 $x61452 $x62048 (<= (+ ?x369 S_1 L_4) (- 20.0))) (or $x81 (<= (+ (* 5.0 S_3) ?x2686 ?x1103 ?x2688) (- 20.0))) $x72106 (or $x81 (<= (+ ?x2658 ?x1707 ?x341 ?x1559) (- 10.0))) $x70676 (or $x81 $x1368 $x11853 $x20662) (or $x81 (not $x61981) $x67472 $x70710) (or $x81 $x1368 $x1756 $x11853) $x71123 $x34 (<= (+ ?x1129 S_0 L_0) 0.0) (<= (+ ?x361 S_1 L_1) 0.0)))))))))))))))))))))))))))))))))))))))))))))))))))))))))))))))))))))))))))))))))))))))))))))))))))))))))))))))))))))))))))))))))))))))))))))))))))))))))))))))))))))))))))))))))))))))))))))))))))))))))))))))))))))))))))))))))))))))))))))))))))))))))))))))))))))))))))))
(check-sat)
